0	58	181	81	178	131	132	107	131	104	97	
130	0	164	128	107	174	68	110	70	148	56	
56	114	0	30	69	90	183	27	23	131	165	
48	168	164	0	22	109	158	104	80	138	108	
97	99	120	141	0	169	171	33	65	25	149	
53	117	186	123	186	0	75	167	30	99	144	
105	21	49	54	64	168	0	171	87	170	114	
85	162	135	104	185	132	90	0	89	37	50	
29	156	136	93	188	148	73	106	0	78	133	
109	109	174	45	124	39	76	21	79	0	109	
113	99	165	29	137	113	113	180	30	73	0	
